12 32 3 10
1 7 14 9 6 3 17 15 9 12 16 17 16 13 14 8 12 19 5 1 14 5 6 14 4 14 5 14 17 11 14 19 
7.73 11.04 12.91 0.96 3.83 9.85 0.51 15.64 0.85 10.77 8.29 15.65 13.25 8.26 14.44 4.97 12.28 7.74 5.82 5.58 4.08 0.07 6 2.57 10.86 11.36 3.62 2.47 0.82 14.15 11.31 11.37 
6.58 1.31 8.53 6.03 3.53 4.95 4.85 15.91 4.44 8.88 14.05 5.1 8.95 0.25 11.24 6.76 5.34 3.35 0.14 4.14 11.15 10.04 2.96 8.31 1.82 6.12 9.22 9.53 0.5 3.12 0.86 14.87 
10.83 11.76 9.28 13.63 5.98 11.54 8.77 0.5 8.31 9.59 12.05 8.7 3.27 8.27 8.98 6.04 9.05 2.1 11.58 13.44 5.03 4.01 14.09 10.72 11.36 2.51 6.86 3.99 4.17 12.55 7.5 1.75 
8 8 8 8 8 8 8 8 8 8 8 8 8 8 8 8 8 8 8 8 8 8 8 8 8 8 8 8 8 8 8 8 
7.68 7.53 3.42 10.19 9.58 15.61 9.94 0.1 0.02 11.6 8.74 1.6 13.48 2.16 8.21 7.97 9.65 11.81 4.58 7.32 7.13 12.17 10.74 14.24 9.3 8.27 13.03 7.28 5.55 11.14 12.06 8.26 
8.83 0.46 11.46 10.34 5.01 9.11 14.17 1.9 8.58 5.3 5.37 5.18 9.87 9.61 8.33 8.56 9.79 7.23 15.36 7.78 12.25 9.03 7.89 6.99 11.99 13.83 0.36 7.57 1.87 3.65 4.59 13.46 
0.99 9 15.74 1.99 10.99 11.26 3.23 0.31 15.72 6.45 14.23 4.42 5.06 8.03 4.69 14.88 12.22 15.24 0.74 2.18 12.34 5.2 12.29 1.95 0.17 3.48 12.57 13.86 3.78 9.73 13.77 2.21 
6.51 11.45 5.62 7.91 3.59 4.86 7.53 15.54 5.67 0.92 7.98 7.22 8.35 8.81 4.58 12.4 7.7 7.8 2.2 10.41 4.52 0.71 8.59 15.19 13.2 12.19 9.21 6.36 12.41 6.42 1.83 2.62 
14.46 14.59 13.15 8.3 8.46 7.12 6.5 9.86 14.5 2.29 3.2 7.59 12.34 0.59 7.45 6.67 9.53 11.82 12.89 3.24 4.96 10.31 4.16 13.87 2.73 12.92 14.97 10.58 10.36 6.19 7.2 6.76 
1.79 3.16 14.8 5.94 14.44 7.33 15.95 15.83 3.34 15.59 13.55 4.34 1.67 4.83 14.71 5.28 7.83 9.45 4.45 11.72 13.16 10.67 7.02 13.35 8.48 8.72 2.98 6.96 9.6 13.87 3.03 0.21 
2.18 5.28 5.7 0.82 14.5 11.77 12.48 14.49 7.16 8.61 9.7 12.18 5.04 4.85 14.5 11.37 0.36 13.33 15.5 0.25 4.15 14.68 11.61 0.38 7.12 0.72 11.36 11.7 8.68 2.04 13.45 14.94 
12.14 0.33 4.18 9.68 9.33 7.32 4.76 13.05 4.56 10.2 3.75 11.34 10.13 5.14 13.62 13.3 14.27 9.88 10.87 3.31 0.55 0.9 10.31 1.93 10.82 11.84 3.01 5.78 2.91 14.85 14.9 11.9 
1 1 1 1 1 1 1 1 1 1 1 1 1 1 1 1 1 1 1 1 1 1 1 1 1 1 1 1 1 1 1 1 
1 1 1 1 1 1 1 1 1 1 1 1 1 1 1 1 1 1 1 1 1 1 1 1 1 1 1 1 1 1 1 1 
1 1 1 1 1 1 1 1 1 1 1 1 1 1 1 1 1 1 1 1 1 1 1 1 1 1 1 1 1 1 1 1 
1 1 1 1 1 1 1 1 1 1 1 1 1 1 1 1 1 1 1 1 1 1 1 1 1 1 1 1 1 1 1 1 
1 1 1 1 1 1 1 1 1 1 1 1 1 1 1 1 1 1 1 1 1 1 1 1 1 1 1 1 1 1 1 1 
1 1 1 1 1 1 1 1 1 1 1 1 1 1 1 1 1 1 1 1 1 1 1 1 1 1 1 1 1 1 1 1 
1 1 1 1 1 1 1 1 1 1 1 1 1 1 1 1 1 1 1 1 1 1 1 1 1 1 1 1 1 1 1 1 
1 1 1 1 1 1 1 1 1 1 1 1 1 1 1 1 1 1 1 1 1 1 1 1 1 1 1 1 1 1 1 1 
1 1 1 1 1 1 1 1 1 1 1 1 1 1 1 1 1 1 1 1 1 1 1 1 1 1 1 1 1 1 1 1 
1 1 1 1 1 1 1 1 1 1 1 1 1 1 1 1 1 1 1 1 1 1 1 1 1 1 1 1 1 1 1 1 
1 1 1 1 1 1 1 1 1 1 1 1 1 1 1 1 1 1 1 1 1 1 1 1 1 1 1 1 1 1 1 1 
1 1 1 1 1 1 1 1 1 1 1 1 1 1 1 1 1 1 1 1 1 1 1 1 1 1 1 1 1 1 1 1 
0.01 0.01 0.01 0.01 0.01 0.01 0.01 0.01 0.01 0.01 0.01 0.01 0.01 0.01 0.01 0.01 0.01 0.01 0.01 0.01 0.01 0.01 0.01 0.01 0.01 0.01 0.01 0.01 0.01 0.01 0.01 0.01 
0.02 0.02 0.02 0.02 0.02 0.02 0.02 0.02 0.02 0.02 0.02 0.02 0.02 0.02 0.02 0.02 0.02 0.02 0.02 0.02 0.02 0.02 0.02 0.02 0.02 0.02 0.02 0.02 0.02 0.02 0.02 0.02 
0.03 0.03 0.03 0.03 0.03 0.03 0.03 0.03 0.03 0.03 0.03 0.03 0.03 0.03 0.03 0.03 0.03 0.03 0.03 0.03 0.03 0.03 0.03 0.03 0.03 0.03 0.03 0.03 0.03 0.03 0.03 0.03 
0.04 0.04 0.04 0.04 0.04 0.04 0.04 0.04 0.04 0.04 0.04 0.04 0.04 0.04 0.04 0.04 0.04 0.04 0.04 0.04 0.04 0.04 0.04 0.04 0.04 0.04 0.04 0.04 0.04 0.04 0.04 0.04 
0.125 0.125 0.125 0.125 0.125 0.125 0.125 0.125 0.125 0.125 0.125 0.125 0.125 0.125 0.125 0.125 0.125 0.125 0.125 0.125 0.125 0.125 0.125 0.125 0.125 0.125 0.125 0.125 0.125 0.125 0.125 0.125 
0.25 0.25 0.25 0.25 0.25 0.25 0.25 0.25 0.25 0.25 0.25 0.25 0.25 0.25 0.25 0.25 0.25 0.25 0.25 0.25 0.25 0.25 0.25 0.25 0.25 0.25 0.25 0.25 0.25 0.25 0.25 0.25 
0.375 0.375 0.375 0.375 0.375 0.375 0.375 0.375 0.375 0.375 0.375 0.375 0.375 0.375 0.375 0.375 0.375 0.375 0.375 0.375 0.375 0.375 0.375 0.375 0.375 0.375 0.375 0.375 0.375 0.375 0.375 0.375 
0.5 0.5 0.5 0.5 0.5 0.5 0.5 0.5 0.5 0.5 0.5 0.5 0.5 0.5 0.5 0.5 0.5 0.5 0.5 0.5 0.5 0.5 0.5 0.5 0.5 0.5 0.5 0.5 0.5 0.5 0.5 0.5 
0.625 0.625 0.625 0.625 0.625 0.625 0.625 0.625 0.625 0.625 0.625 0.625 0.625 0.625 0.625 0.625 0.625 0.625 0.625 0.625 0.625 0.625 0.625 0.625 0.625 0.625 0.625 0.625 0.625 0.625 0.625 0.625 
0.75 0.75 0.75 0.75 0.75 0.75 0.75 0.75 0.75 0.75 0.75 0.75 0.75 0.75 0.75 0.75 0.75 0.75 0.75 0.75 0.75 0.75 0.75 0.75 0.75 0.75 0.75 0.75 0.75 0.75 0.75 0.75 
0.875 0.875 0.875 0.875 0.875 0.875 0.875 0.875 0.875 0.875 0.875 0.875 0.875 0.875 0.875 0.875 0.875 0.875 0.875 0.875 0.875 0.875 0.875 0.875 0.875 0.875 0.875 0.875 0.875 0.875 0.875 0.875 
1 1 1 1 1 1 1 1 1 1 1 1 1 1 1 1 1 1 1 1 1 1 1 1 1 1 1 1 1 1 1 1 
